100
32
3
2
11
20
18
6
9
7
18
17
3
2
2
2
19
18
3
17
5
1
2
5
2
1
4
16
1
3
7
1
3
2
1
2
1
1
1
2
1
2
2
4
2
18
1
2
21
4
4
1
2
17
3
5
2
2
17
4
2
3
1
1
17
1
3
3
2
3
1
2
2
1
1
3
17
2
5
2
2
1
1
4
1
2
1
1
1
2
2
2
2
19
1
3
1
5
2
1
1
1